param L := 192;

set MODULI := M1 M2 M3 M4 M5 M6 M7 M8 M9 M10 ;

param d :=
  M1 6
  M2 4
  M3 6
  M4 9
  M5 5
  M6 5
  M7 6
  M8 4
  M9 4
  M10 9
;

param l :=
  M1 10
  M2 43
  M3 35
  M4 48
  M5 10
  M6 44
  M7 44
  M8 18
  M9 21
  M10 13
;
